(set-info :smt-lib-version 2.6)
(set-logic QF_NIA)
(set-info :source |AProve team, see http://aprove.informatik.rwth-aachen.de/, submitted for SMT-COMP 2014|)
(set-info :category "industrial")
(set-info :status sat)
(declare-fun b__44 () Int)
(declare-fun a__6 () Int)
(declare-fun a__2 () Int)
(declare-fun a__12 () Int)
(declare-fun b__45 () Int)
(declare-fun a__8 () Int)
(declare-fun a__26 () Int)
(declare-fun a__14 () Int)
(declare-fun a__16 () Int)
(declare-fun b__46 () Int)
(declare-fun b__47 () Int)
(declare-fun b__48 () Int)
(declare-fun b__49 () Int)
(declare-fun a__19 () Int)
(declare-fun a__4 () Int)
(declare-fun a__9 () Int)
(declare-fun a__17 () Int)
(declare-fun a__21 () Int)
(declare-fun a__23 () Int)
(declare-fun a__24 () Int)
(declare-fun a__13 () Int)
(declare-fun a__27 () Int)
(declare-fun a__25 () Int)
(declare-fun a__28 () Int)
(declare-fun a__29 () Int)
(declare-fun a__30 () Int)
(declare-fun a__10 () Int)
(declare-fun a__31 () Int)
(declare-fun a__3 () Int)
(declare-fun a__32 () Int)
(declare-fun a__33 () Int)
(declare-fun a__34 () Int)
(declare-fun a__35 () Int)
(declare-fun a__7 () Int)
(declare-fun a__11 () Int)
(declare-fun a__36 () Int)
(declare-fun a__37 () Int)
(declare-fun a__38 () Int)
(declare-fun a__39 () Int)
(declare-fun a__40 () Int)
(declare-fun a__18 () Int)
(declare-fun a__22 () Int)
(declare-fun a__41 () Int)
(declare-fun a__42 () Int)
(declare-fun a__15 () Int)
(declare-fun a__20 () Int)
(declare-fun a__43 () Int)
(declare-fun a__1 () Int)
(declare-fun a__5 () Int)
(assert (and (>= (+ 1 (* (- 0 1) b__44)) 0) (= (+ (* b__44 a__6) (* (- 0 1) a__6)) 0) (= (+ (* b__44 a__2 a__12) (* (- 0 1) (* a__2 a__12))) 0) (>= (+ 1 (* (- 0 1) b__45)) 0) (= (+ (* b__45 a__2) (* (- 0 1) a__2)) 0) (= (+ (* b__45 a__6 a__8 a__26) (* (- 0 1) (* a__6 a__8 a__26))) 0) (= (+ (* b__45 a__6 a__8 a__14) (* (- 0 1) (* a__6 a__8 a__14))) 0) (= (+ (* b__45 a__6 a__26 a__16) (* (- 0 1) (* a__6 a__26 a__16))) 0) (= (+ (* b__45 a__6 a__16 a__14) (* (- 0 1) (* a__6 a__16 a__14))) 0) (>= (+ 1 (* (- 0 1) b__46)) 0) (= (+ (* b__46 a__6 a__8) (* (- 0 1) (* a__6 a__8))) 0) (= (+ (* b__46 a__6 a__16) (* (- 0 1) (* a__6 a__16))) 0) (>= (+ 1 (* (- 0 1) b__47)) 0) (= (+ (* b__47 a__6) (* (- 0 1) a__6)) 0) (= (+ (* b__47 a__2) (* (- 0 1) a__2)) 0) (>= (+ 1 (* (- 0 1) b__48)) 0) (= (+ (* b__48 a__6 a__8 a__26) (* (- 0 1) (* a__6 a__8 a__26))) 0) (= (+ (* b__48 a__6 a__8 a__14) (* (- 0 1) (* a__6 a__8 a__14))) 0) (= (+ (* b__48 a__6 a__26 a__16) (* (- 0 1) (* a__6 a__26 a__16))) 0) (= (+ (* b__48 a__6 a__16 a__14) (* (- 0 1) (* a__6 a__16 a__14))) 0) (>= (+ 1 (* (- 0 1) b__49)) 0) (= (+ (* b__49 a__6 a__8 a__26) (* (- 0 1) (* a__6 a__8 a__26))) 0) (= (+ (* b__49 a__6 a__26 a__16) (* (- 0 1) (* a__6 a__26 a__16))) 0) (= (+ (* b__49 a__6 a__8 a__14 a__19) (* (- 0 1) (* a__6 a__8 a__14 a__19))) 0) (= (+ (* b__49 a__6 a__16 a__14 a__19) (* (- 0 1) (* a__6 a__16 a__14 a__19))) 0) (>= (+ (* a__4 a__2) (* (- 0 1) (* a__4 a__6))) 0) (>= (+ (* a__9 a__6) (* (- 0 1) (* a__4 a__12 a__2))) 0) (>= (+ (* a__8 a__2) (* (- 0 1) (* a__14 a__8 a__6))) 0) (>= (+ (* a__9 a__2) (* (- 0 1) (* a__9 a__6))) 0) (>= (+ (* a__8 a__2) (* (- 0 1) a__2)) 0) (>= (+ (* a__17 a__6) (* (- 0 1) a__2)) 0) (>= (+ (* a__12 a__2) (* (- 0 1) a__2)) 0) (>= (+ (* a__19 a__4 a__6) (* (- 0 1) (* a__21 a__8 a__2)) (* (- 0 1) (* a__9 a__2))) 0) (>= (+ (* a__23 a__21 a__6) (* (- 0 1) (* a__21 a__16 a__2))) 0) (>= (+ (* a__24 a__21 a__6) (* (- 0 1) (* a__21 a__17 a__2))) 0) (>= (+ (* a__19 a__21 a__6) (* (- 0 1) (* a__21 a__2))) 0) (>= (+ (* a__16 a__2) (* (- 0 1) (* a__14 a__16 a__6))) 0) (>= (+ (* a__17 a__2) (* (- 0 1) (* a__17 a__6))) 0) (>= (+ (* a__16 a__2) (* (- 0 1) a__2)) 0) (>= (+ (* a__21 a__2) (* (- 0 1) (* a__21 a__6))) 0) (>= (+ (* b__44 a__26 a__4) (* (- 0 1) (* b__44 a__4))) 0) (>= (+ (* b__44 a__14 a__4) (* (- 0 1) (* b__44 a__4))) 0) (>= (+ (* b__45 a__26 a__12) (* (- 0 1) (* b__45 a__12))) 0) (>= (+ (* b__45 a__14 a__12) (* (- 0 1) (* b__45 a__12))) 0) (>= (+ (* b__46 a__13) (* b__46 a__27 a__14) (* (- 0 1) (* b__46 a__25)) (* (- 0 1) (* b__46 a__27 a__26)) (* (- 0 1) (* b__46 a__13 a__28 a__26))) 0) (>= (+ (* b__46 a__28 a__14) (* (- 0 1) (* b__46 a__14 a__28 a__26))) 0) (>= (+ (* b__46 a__29 a__14) (* (- 0 1) (* b__46 a__29 a__26))) 0) (>= (+ (* b__46 a__30 a__14) (* (- 0 1) (* b__46 a__30 a__26))) 0) (>= (+ (* b__46 a__25) (* b__46 a__27 a__26) (* b__46 a__10 a__28 a__26) (* (- 0 1) (* b__46 a__13)) (* (- 0 1) (* b__46 a__31 a__14)) (* (- 0 1) (* b__46 a__3 a__32 a__14))) 0) (>= (+ (* b__46 a__29 a__26) (* (- 0 1) (* b__46 a__4 a__32 a__14))) 0) (>= (+ (* b__46 a__30 a__26) (* (- 0 1) (* b__46 a__33 a__14))) 0) (>= (+ (* b__46 a__13) (* b__46 a__31 a__14) (* (- 0 1) (* b__46 a__25)) (* (- 0 1) (* b__46 a__31 a__26)) (* (- 0 1) (* b__46 a__13 a__32 a__26))) 0) (>= (+ (* b__46 a__32 a__14) (* (- 0 1) (* b__46 a__14 a__32 a__26))) 0) (>= (+ (* b__46 a__33 a__14) (* (- 0 1) (* b__46 a__33 a__26))) 0) (>= (+ (* b__46 a__25) (* b__46 a__31 a__26) (* b__46 a__10 a__32 a__26) (* (- 0 1) (* b__46 a__13)) (* (- 0 1) (* b__46 a__34 a__14)) (* (- 0 1) (* b__46 a__3 a__35 a__14))) 0) (>= (+ (* b__46 a__33 a__26) (* (- 0 1) (* b__46 a__4 a__35 a__14))) 0) (>= (+ (* b__46 a__13) (* b__46 a__3 a__14) (* (- 0 1) (* b__46 a__25)) (* (- 0 1) (* b__46 a__3 a__26))) 0) (>= (+ (* b__46 a__4 a__14) (* (- 0 1) (* b__46 a__4 a__26))) 0) (>= (+ (* b__46 a__25) (* b__46 a__7 a__26) (* b__46 a__10 a__8 a__26) (* (- 0 1) (* b__46 a__13)) (* (- 0 1) (* b__46 a__11 a__14)) (* (- 0 1) (* b__46 a__3 a__12 a__14))) 0) (>= (+ (* b__46 a__9 a__26) (* (- 0 1) (* b__46 a__4 a__12 a__14))) 0) (>= (+ (* b__46 a__13) (* b__46 a__34 a__14) (* (- 0 1) (* b__46 a__25)) (* (- 0 1) (* b__46 a__34 a__26)) (* (- 0 1) (* b__46 a__13 a__35 a__26))) 0) (>= (+ (* b__46 a__35 a__14) (* (- 0 1) (* b__46 a__14 a__35 a__26))) 0) (>= (+ (* b__46 a__25) (* b__46 a__36 a__26) (* b__46 a__10 a__37 a__26) (* (- 0 1) (* b__46 a__13))) 0) (>= (+ (* b__46 a__38 a__26) (* (- 0 1) (* b__46 a__14))) 0) (>= (+ (* b__46 a__13) (* b__46 a__7 a__14) (* (- 0 1) (* b__46 a__25)) (* (- 0 1) (* b__46 a__7 a__26)) (* (- 0 1) (* b__46 a__13 a__8 a__26))) 0) (>= (+ (* b__46 a__8 a__14) (* (- 0 1) (* b__46 a__14 a__8 a__26))) 0) (>= (+ (* b__46 a__9 a__14) (* (- 0 1) (* b__46 a__9 a__26))) 0) (>= (+ (* b__46 a__25) (* b__46 a__39 a__26) (* b__46 a__10 a__40 a__26) (* (- 0 1) (* b__46 a__13)) (* (- 0 1) (* b__46 a__18 a__14)) (* (- 0 1) (* b__46 a__22 a__19 a__14))) 0) (>= (+ (* b__46 a__41 a__26) (* (- 0 1) (* b__46 a__24 a__19 a__14))) 0) (>= (+ (* b__46 a__42 a__26) (* (- 0 1) (* b__46 a__23 a__19 a__14))) 0) (>= (+ (* b__46 a__13) (* b__46 a__11 a__14) (* (- 0 1) (* b__46 a__25)) (* (- 0 1) (* b__46 a__11 a__26)) (* (- 0 1) (* b__46 a__13 a__12 a__26))) 0) (>= (+ (* b__46 a__12 a__14) (* (- 0 1) (* b__46 a__14 a__12 a__26))) 0) (>= (+ (* b__46 a__25) (* b__46 a__15 a__26) (* b__46 a__10 a__16 a__26) (* (- 0 1) (* b__46 a__13))) 0) (>= (+ (* b__46 a__17 a__26) (* (- 0 1) (* b__46 a__14))) 0) (>= (+ (* b__46 a__13) (* b__46 a__36 a__14) (* (- 0 1) (* b__46 a__25)) (* (- 0 1) (* b__46 a__36 a__26)) (* (- 0 1) (* b__46 a__13 a__37 a__26))) 0) (>= (+ (* b__46 a__37 a__14) (* (- 0 1) (* b__46 a__14 a__37 a__26))) 0) (>= (+ (* b__46 a__38 a__14) (* (- 0 1) (* b__46 a__38 a__26))) 0) (>= (+ (* b__46 a__25) (* b__46 a__3 a__26) (* b__46 a__22 a__4 a__26) (* (- 0 1) (* b__46 a__13)) (* (- 0 1) (* b__46 a__27 a__14)) (* (- 0 1) (* b__46 a__15 a__28 a__14)) (* (- 0 1) (* b__46 a__20 a__16 a__28 a__14)) (* (- 0 1) (* b__46 a__20 a__17 a__28 a__14))) 0) (>= (+ (* b__46 a__23 a__4 a__26) (* (- 0 1) (* b__46 a__21 a__16 a__28 a__14)) (* (- 0 1) (* b__46 a__29 a__14))) 0) (>= (+ (* b__46 a__24 a__4 a__26) (* (- 0 1) (* b__46 a__21 a__17 a__28 a__14)) (* (- 0 1) (* b__46 a__30 a__14))) 0) (>= (+ (* b__46 a__13) (* b__46 a__39 a__14) (* (- 0 1) (* b__46 a__25)) (* (- 0 1) (* b__46 a__39 a__26)) (* (- 0 1) (* b__46 a__13 a__40 a__26))) 0) (>= (+ (* b__46 a__40 a__14) (* (- 0 1) (* b__46 a__14 a__40 a__26))) 0) (>= (+ (* b__46 a__41 a__14) (* (- 0 1) (* b__46 a__41 a__26))) 0) (>= (+ (* b__46 a__42 a__14) (* (- 0 1) (* b__46 a__42 a__26))) 0) (>= (+ (* b__46 a__25) (* b__46 a__3 a__26) (* b__46 a__18 a__4 a__26) (* (- 0 1) (* b__46 a__13)) (* (- 0 1) (* b__46 a__7 a__14)) (* (- 0 1) (* b__46 a__20 a__8 a__14))) 0) (>= (+ (* b__46 a__19 a__4 a__26) (* (- 0 1) (* b__46 a__21 a__8 a__14)) (* (- 0 1) (* b__46 a__9 a__14))) 0) (>= (+ (* b__46 a__13) (* b__46 a__18 a__14) (* (- 0 1) (* b__46 a__25)) (* (- 0 1) (* b__46 a__18 a__26)) (* (- 0 1) (* b__46 a__13 a__19 a__26))) 0) (>= (+ (* b__46 a__19 a__14) (* (- 0 1) (* b__46 a__14 a__19 a__26))) 0) (>= (+ (* b__46 a__25) (* b__46 a__20 a__26) (* b__46 a__22 a__21 a__26) (* (- 0 1) (* b__46 a__13)) (* (- 0 1) (* b__46 a__15 a__14)) (* (- 0 1) (* b__46 a__20 a__16 a__14)) (* (- 0 1) (* b__46 a__20 a__17 a__14))) 0) (>= (+ (* b__46 a__23 a__21 a__26) (* (- 0 1) (* b__46 a__21 a__16 a__14))) 0) (>= (+ (* b__46 a__24 a__21 a__26) (* (- 0 1) (* b__46 a__21 a__17 a__14))) 0) (>= (+ (* b__46 a__13) (* b__46 a__22 a__14) (* (- 0 1) (* b__46 a__25)) (* (- 0 1) (* b__46 a__22 a__26)) (* (- 0 1) (* b__46 a__13 a__23 a__26)) (* (- 0 1) (* b__46 a__13 a__24 a__26))) 0) (>= (+ (* b__46 a__23 a__14) (* (- 0 1) (* b__46 a__14 a__23 a__26))) 0) (>= (+ (* b__46 a__24 a__14) (* (- 0 1) (* b__46 a__14 a__24 a__26))) 0) (>= (+ (* b__46 a__25) (* b__46 a__20 a__26) (* b__46 a__18 a__21 a__26) (* (- 0 1) (* b__46 a__13)) (* (- 0 1) (* b__46 a__20 a__14))) 0) (>= (+ (* b__46 a__19 a__21 a__26) (* (- 0 1) (* b__46 a__21 a__14))) 0) (>= (+ (* b__46 a__13) (* b__46 a__15 a__14) (* (- 0 1) (* b__46 a__25)) (* (- 0 1) (* b__46 a__15 a__26)) (* (- 0 1) (* b__46 a__13 a__16 a__26))) 0) (>= (+ (* b__46 a__16 a__14) (* (- 0 1) (* b__46 a__14 a__16 a__26))) 0) (>= (+ (* b__46 a__17 a__14) (* (- 0 1) (* b__46 a__17 a__26))) 0) (>= (+ (* b__46 a__25) (* b__46 a__22 a__26) (* b__46 a__43 a__24 a__26) (* (- 0 1) (* b__46 a__13)) (* (- 0 1) (* b__46 a__36 a__14)) (* (- 0 1) (* b__46 a__15 a__37 a__14)) (* (- 0 1) (* b__46 a__3 a__16 a__37 a__14)) (* (- 0 1) (* b__46 a__20 a__17 a__37 a__14))) 0) (>= (+ (* b__46 a__23 a__26) (* (- 0 1) (* b__46 a__4 a__16 a__37 a__14)) (* (- 0 1) (* b__46 a__21 a__17 a__37 a__14)) (* (- 0 1) (* b__46 a__38 a__14))) 0) (>= (+ (* b__46 a__13) (* b__46 a__20 a__14) (* (- 0 1) (* b__46 a__25)) (* (- 0 1) (* b__46 a__20 a__26))) 0) (>= (+ (* b__46 a__21 a__14) (* (- 0 1) (* b__46 a__21 a__26))) 0) (>= (+ (* b__46 a__25) (* b__46 a__22 a__26) (* b__46 a__18 a__24 a__26) (* (- 0 1) (* b__46 a__13)) (* (- 0 1) (* b__46 a__39 a__14)) (* (- 0 1) (* b__46 a__15 a__40 a__14)) (* (- 0 1) (* b__46 a__15 a__16 a__40 a__14)) (* (- 0 1) (* b__46 a__3 a__16 a__16 a__40 a__14)) (* (- 0 1) (* b__46 a__20 a__17 a__16 a__40 a__14)) (* (- 0 1) (* b__46 a__15 a__17 a__40 a__14)) (* (- 0 1) (* b__46 a__3 a__16 a__17 a__40 a__14)) (* (- 0 1) (* b__46 a__20 a__17 a__17 a__40 a__14))) 0) (>= (+ (* b__46 a__23 a__26) (* (- 0 1) (* b__46 a__4 a__16 a__17 a__40 a__14)) (* (- 0 1) (* b__46 a__21 a__17 a__17 a__40 a__14)) (* (- 0 1) (* b__46 a__42 a__14))) 0) (>= (+ (* b__46 a__19 a__24 a__26) (* (- 0 1) (* b__46 a__4 a__16 a__16 a__40 a__14)) (* (- 0 1) (* b__46 a__21 a__17 a__16 a__40 a__14)) (* (- 0 1) (* b__46 a__41 a__14))) 0) (>= (+ (* b__46 a__13) (* b__46 a__10 a__14) (* (- 0 1) (* b__46 a__25)) (* (- 0 1) (* b__46 a__10 a__26))) 0) (>= (+ (* b__46 a__13) (* b__46 a__43 a__14) (* (- 0 1) (* b__46 a__25)) (* (- 0 1) (* b__46 a__43 a__26))) 0) (>= (+ (* b__47 a__14 a__9) (* (- 0 1) (* b__47 a__9))) 0) (>= (+ (* b__47 a__14 a__8) (* (- 0 1) (* b__47 a__8))) 0) (>= (+ (* b__47 a__26 a__8) (* (- 0 1) (* b__47 a__8))) 0) (>= (+ (* b__47 a__26 a__9) (* (- 0 1) (* b__47 a__9))) 0) (>= (+ (* b__47 a__26 a__21) (* (- 0 1) (* b__47 a__21))) 0) (>= (+ (* b__47 a__14 a__21) (* (- 0 1) (* b__47 a__21))) 0) (>= (+ (* b__47 a__14 a__17) (* (- 0 1) (* b__47 a__17))) 0) (>= (+ (* b__47 a__14 a__16) (* (- 0 1) (* b__47 a__16))) 0) (>= (+ (* b__47 a__26 a__16) (* (- 0 1) (* b__47 a__16))) 0) (>= (+ (* b__47 a__26 a__17) (* (- 0 1) (* b__47 a__17))) 0) (>= (+ (* b__48 a__14 a__29) (* (- 0 1) (* b__48 a__29))) 0) (>= (+ (* b__48 a__14 a__28) (* (- 0 1) (* b__48 a__28))) 0) (>= (+ (* b__48 a__14 a__30) (* (- 0 1) (* b__48 a__30))) 0) (>= (+ (* b__48 a__26 a__28) (* (- 0 1) (* b__48 a__28))) 0) (>= (+ (* b__48 a__26 a__29) (* (- 0 1) (* b__48 a__29))) 0) (>= (+ (* b__48 a__26 a__30) (* (- 0 1) (* b__48 a__30))) 0) (>= (+ (* b__46 a__25) (* b__46 a__34 a__26) (* b__46 a__10 a__35 a__26) (* (- 0 1) (* b__46 a__13)) (* (- 0 1) (* b__46 a__10 a__14))) 0) (>= (+ (* b__46 a__25) (* b__46 a__11 a__26) (* b__46 a__10 a__12 a__26) (* (- 0 1) (* b__46 a__13)) (* (- 0 1) (* b__46 a__10 a__14))) 0) (>= (+ (* b__46 a__25) (* b__46 a__3 a__26) (* b__46 a__43 a__4 a__26) (* (- 0 1) (* b__46 a__13)) (* (- 0 1) (* b__46 a__10 a__14))) 0) (>= (+ (* b__46 a__25) (* b__46 a__20 a__26) (* b__46 a__43 a__21 a__26) (* (- 0 1) (* b__46 a__13)) (* (- 0 1) (* b__46 a__10 a__14))) 0) (>= (+ (* b__48 a__14 a__33) (* (- 0 1) (* b__48 a__33))) 0) (>= (+ (* b__48 a__14 a__32) (* (- 0 1) (* b__48 a__32))) 0) (>= (+ (* b__48 a__26 a__32) (* (- 0 1) (* b__48 a__32))) 0) (>= (+ (* b__48 a__26 a__33) (* (- 0 1) (* b__48 a__33))) 0) (>= (+ (* b__48 a__26 a__35) (* (- 0 1) (* b__48 a__35))) 0) (>= (+ (* b__48 a__14 a__35) (* (- 0 1) (* b__48 a__35))) 0) (>= (+ (* b__49 a__14 a__24) (* (- 0 1) (* b__49 a__24))) 0) (>= (+ (* b__49 a__14 a__23) (* (- 0 1) (* b__49 a__23))) 0) (>= (+ (* b__49 a__26 a__23) (* (- 0 1) (* b__49 a__23))) 0) (>= (+ (* b__49 a__26 a__24) (* (- 0 1) (* b__49 a__24))) 0) (>= (+ (* b__48 a__26 a__19) (* (- 0 1) (* b__48 a__19))) 0) (>= (+ (* b__48 a__14 a__19) (* (- 0 1) (* b__48 a__19))) 0) (>= (+ (* b__48 a__14 a__38) (* (- 0 1) (* b__48 a__38))) 0) (>= (+ (* b__48 a__14 a__37) (* (- 0 1) (* b__48 a__37))) 0) (>= (+ (* b__48 a__26 a__37) (* (- 0 1) (* b__48 a__37))) 0) (>= (+ (* b__48 a__26 a__38) (* (- 0 1) (* b__48 a__38))) 0) (>= (+ (* b__48 a__14 a__41) (* (- 0 1) (* b__48 a__41))) 0) (>= (+ (* b__48 a__14 a__40) (* (- 0 1) (* b__48 a__40))) 0) (>= (+ (* b__48 a__14 a__42) (* (- 0 1) (* b__48 a__42))) 0) (>= (+ (* b__48 a__26 a__40) (* (- 0 1) (* b__48 a__40))) 0) (>= (+ (* b__48 a__26 a__41) (* (- 0 1) (* b__48 a__41))) 0) (>= (+ (* b__48 a__26 a__42) (* (- 0 1) (* b__48 a__42))) 0) (>= (+ a__1 (* a__3 a__2) (* (- 0 1) a__5) (* (- 0 1) (* a__3 a__6))) 0) (>= (+ a__5 (* a__7 a__6) (* a__10 a__8 a__6) (* (- 0 1) a__1) (* (- 0 1) (* a__11 a__2)) (* (- 0 1) (* a__3 a__12 a__2))) 0) (>= (+ a__1 (* a__7 a__2) (* (- 0 1) a__5) (* (- 0 1) (* a__7 a__6)) (* (- 0 1) (* a__13 a__8 a__6))) 0) (>= (* a__7 a__2) 0) (>= (+ a__5 (* a__15 a__6) (* a__10 a__16 a__6) (* (- 0 1) a__1)) 0) (>= (* a__11 a__2) 0) (>= (+ a__5 (* a__3 a__6) (* a__18 a__4 a__6) (* (- 0 1) a__1) (* (- 0 1) (* a__7 a__2)) (* (- 0 1) (* a__20 a__8 a__2))) 0) (>= (+ a__5 (* a__20 a__6) (* a__22 a__21 a__6) (* (- 0 1) a__1) (* (- 0 1) (* a__15 a__2)) (* (- 0 1) (* a__20 a__16 a__2)) (* (- 0 1) (* a__20 a__17 a__2))) 0) (>= (+ a__5 (* a__20 a__6) (* a__18 a__21 a__6) (* (- 0 1) a__1) (* (- 0 1) (* a__20 a__2))) 0) (>= (+ a__1 (* a__15 a__2) (* (- 0 1) a__5) (* (- 0 1) (* a__15 a__6)) (* (- 0 1) (* a__13 a__16 a__6))) 0) (>= (* a__15 a__2) 0) (>= (+ a__1 (* a__20 a__2) (* (- 0 1) a__5) (* (- 0 1) (* a__20 a__6))) 0) (not (and (= (+ a__1 (* a__3 a__2) (* (- 0 1) a__5) (* (- 0 1) (* a__3 a__6))) 0) (= (+ a__5 (* a__7 a__6) (* a__10 a__8 a__6) (* (- 0 1) a__1) (* (- 0 1) (* a__11 a__2)) (* (- 0 1) (* a__3 a__12 a__2))) 0) (= (+ a__1 (* a__7 a__2) (* (- 0 1) a__5) (* (- 0 1) (* a__7 a__6)) (* (- 0 1) (* a__13 a__8 a__6))) 0) (= (* a__7 a__2) 0) (= (+ a__5 (* a__15 a__6) (* a__10 a__16 a__6) (* (- 0 1) a__1)) 0) (= (* a__11 a__2) 0) (= (+ a__5 (* a__3 a__6) (* a__18 a__4 a__6) (* (- 0 1) a__1) (* (- 0 1) (* a__7 a__2)) (* (- 0 1) (* a__20 a__8 a__2))) 0) (= (+ a__5 (* a__20 a__6) (* a__22 a__21 a__6) (* (- 0 1) a__1) (* (- 0 1) (* a__15 a__2)) (* (- 0 1) (* a__20 a__16 a__2)) (* (- 0 1) (* a__20 a__17 a__2))) 0) (= (+ a__5 (* a__20 a__6) (* a__18 a__21 a__6) (* (- 0 1) a__1) (* (- 0 1) (* a__20 a__2))) 0) (= (+ a__1 (* a__15 a__2) (* (- 0 1) a__5) (* (- 0 1) (* a__15 a__6)) (* (- 0 1) (* a__13 a__16 a__6))) 0) (= (* a__15 a__2) 0) (= (+ a__1 (* a__20 a__2) (* (- 0 1) a__5) (* (- 0 1) (* a__20 a__6))) 0))) (>= b__44 0) (>= 1 b__44) (>= a__6 0) (>= a__2 0) (>= a__12 0) (>= b__45 0) (>= 1 b__45) (>= a__8 0) (>= a__26 0) (>= a__14 0) (>= a__16 0) (>= b__46 0) (>= 1 b__46) (>= b__47 0) (>= 1 b__47) (>= b__48 0) (>= 1 b__48) (>= b__49 0) (>= 1 b__49) (>= a__19 0) (>= a__4 0) (>= a__9 0) (>= a__17 0) (>= a__21 0) (>= a__23 0) (>= a__24 0) (>= a__13 0) (>= a__27 0) (>= a__25 0) (>= a__28 0) (>= a__29 0) (>= a__30 0) (>= a__10 0) (>= a__31 0) (>= a__3 0) (>= a__32 0) (>= a__33 0) (>= a__34 0) (>= a__35 0) (>= a__7 0) (>= a__11 0) (>= a__36 0) (>= a__37 0) (>= a__38 0) (>= a__39 0) (>= a__40 0) (>= a__18 0) (>= a__22 0) (>= a__41 0) (>= a__42 0) (>= a__15 0) (>= a__20 0) (>= a__43 0) (>= a__1 0) (>= a__5 0)))
(check-sat)
;;(get-assignment)
;;(get-model)
(exit)
